DIMENSION: 20
EDGE_WEIGHT_TYPE: EXPLICIT
EDGE_WEIGHT_FORMAT: FULL_MATRIX
EDGE_WEIGHT_SECTION:
32767 1 32767 46 57 91 32767 23 32767 32767 32767 1 99 90 32767 32767 78 32767 76 52 
1 32767 32767 4 32767 32767 32767 32767 1 32767 32767 24 32767 32767 32767 32767 71 32767 32767 32767 
32767 32767 32767 32767 29 32767 15 78 78 32767 32767 32767 32767 32767 32767 32767 32767 32767 52 32767 
46 4 32767 32767 32767 32767 32767 32767 32767 32767 32767 42 66 32767 57 26 53 32767 73 12 
57 32767 29 32767 32767 32767 32767 32767 35 32767 32767 32767 32767 32767 32767 73 73 57 52 32767 
91 32767 32767 32767 32767 32767 60 32767 32767 32767 32767 17 32767 32767 32767 32767 1 32767 1 32767 
32767 32767 15 32767 32767 60 32767 32767 71 8 1 80 32767 32767 87 32767 32767 32767 32767 32767 
23 32767 78 32767 32767 32767 32767 32767 32767 32767 32767 32767 36 32767 36 32767 32767 32767 32767 64 
32767 1 78 32767 35 32767 71 32767 32767 32767 32767 1 54 68 15 32767 32767 8 48 32767 
32767 32767 32767 32767 32767 32767 8 32767 32767 32767 32767 35 32767 32767 31 32767 32767 32767 73 32767 
32767 32767 32767 32767 32767 32767 1 32767 32767 32767 32767 32767 32767 32767 32767 32767 32767 16 32767 32767 
1 24 32767 42 32767 17 80 32767 1 35 32767 32767 17 91 38 51 45 45 67 64 
99 32767 32767 66 32767 32767 32767 36 54 32767 32767 17 32767 29 32767 32767 32767 32767 86 32767 
90 32767 32767 32767 32767 32767 32767 32767 68 32767 32767 91 29 32767 32767 72 38 41 32767 32767 
32767 32767 32767 57 32767 32767 87 36 15 31 32767 38 32767 32767 32767 31 32767 32767 49 66 
32767 32767 32767 26 73 32767 32767 32767 32767 32767 32767 51 32767 72 31 32767 55 68 39 32767 
78 71 32767 53 73 1 32767 32767 32767 32767 32767 45 32767 38 32767 55 32767 17 32767 32767 
32767 32767 32767 32767 57 32767 32767 32767 8 32767 16 45 32767 41 32767 68 17 32767 37 17 
76 32767 52 73 52 1 32767 32767 48 73 32767 67 86 32767 49 39 32767 37 32767 32767 
52 32767 32767 12 32767 32767 32767 64 32767 32767 32767 64 32767 32767 66 32767 32767 17 32767 32767 
EOF